NAME : jam20
COMMENT : Generated by Jaemin Kim (20211061)
TYPE : TSP
DIMENSION : 20
EDGE_WEIGHT_TYPE : EUC_2D
NODE_COORD_SECTION
1 150 200
2 154 218
3 182 253
4 234 268
5 287 243
6 310 190
7 287 131
8 234 78
9 182 31
10 154 -5
11 150 -20
12 145 -5
13 117 31
14 65 78
15 12 131
16 -10 189
17 12 243
18 65 268
19 117 253
20 145 218
EOF
